expected_failures_A=53;
expected_failures_B=53;
expected_failures_C=52;
s=3;
hints=[|
0,0,0,6,0,0,0,0,4|
0,3,0,0,9,0,0,2,0|
0,6,0,8,0,0,7,0,0|
0,0,5,0,6,0,0,0,1|
6,7,0,3,0,1,0,5,8|
9,0,0,0,5,0,4,0,0|
0,0,6,0,0,3,0,9,0|
0,1,0,0,8,0,0,6,0|
2,0,0,0,0,6,0,0,0|];
